p cnf 20 23
-1 -2 -3 18 0 
-4 8 -5 9 19 0 
-5 9 -4 8 19 0 
-6 -7 -4 8 -5 9 -3 19 0 
-8 4 -9 5 -10 12 19 0 
-5 9 19 0 
-5 9 -7 -11 16 -3 19 0 
-12 10 -8 4 19 0 
-6 -7 -5 9 -1 -3 19 0 
-4 8 -5 9 -3 19 0 
-4 8 20 0 
-4 8 18 0 
-1 -13 -4 8 18 0 
-1 -13 -3 20 0 
-4 8 -14 -1 -5 9 19 0 
-15 -5 9 -3 19 0 
-5 9 -6 -3 19 0 
-3 19 0 
-7 -4 8 19 0 
-5 9 -6 -15 -4 8 19 0 
-6 -1 -5 9 19 0 
-16 11 19 0 
-17 -14 -3 20 0 
